100
128
62
64
62
64
9
15
31
29
61
48
30
27
57
7
12
30
56
9
36
12
36
17
18
4
39
28
40
56
30
13
33
54
41
33
22
44
28
29
33
63
16
45
2
30
36
3
1
55
48
11
24
12
25
38
22
16
47
3
33
48
11
20
18
26
11
16
26
14
40
11
52
22
56
19
28
52
40
36
24
20
34
18
36
45
27
35
23
18
54
20
24
2
27
48
39
20
30
20
59
38